(set-logic QF_LRA)
(declare-fun T1 () Real )
(declare-fun T2 () Real )
(declare-fun T3 () Real )
(declare-fun T4 () Real )
(declare-fun T5 () Real )
(declare-fun T6 () Real )
(declare-fun T7 () Real )
(declare-fun T8 () Real )
(declare-fun Z () Real )
(declare-fun k () Real )
(assert (let
(( $goal (>= Z k) ))
(let
((
$phi ( and 
(or ( <= ( + T1 51 ) T2 ) ( <= ( + T2 55 ) T1 ) )
(or ( <= ( + T1 63 )  ( + T2 55 ) ) ( <= ( + T2 97 )( + T1 51 ) ) )
(or ( <= ( + T1 132 )  ( + T2 97 ) ) ( <= ( + T2 164 )( + T1 63 ) ) )
(or ( <= ( + T1 144 )  ( + T2 164 ) ) ( <= ( + T2 215 )( + T1 132 ) ) )
(or ( <= ( + T1 216 )  ( + T2 215 ) ) ( <= ( + T2 277 )( + T1 144 ) ) )
(or ( <= ( + T1 294 )  ( + T2 277 ) ) ( <= ( + T2 297 )( + T1 216 ) ) )
(or ( <= ( + T1 51 ) T3 ) ( <= ( + T3 99 ) T1 ) )
(or ( <= ( + T1 63 )  ( + T3 99 ) ) ( <= ( + T3 147 )( + T1 51 ) ) )
(or ( <= ( + T1 132 )  ( + T3 147 ) ) ( <= ( + T3 162 )( + T1 63 ) ) )
(or ( <= ( + T1 144 )  ( + T3 162 ) ) ( <= ( + T3 217 )( + T1 132 ) ) )
(or ( <= ( + T1 216 )  ( + T3 217 ) ) ( <= ( + T3 237 )( + T1 144 ) ) )
(or ( <= ( + T1 294 )  ( + T3 237 ) ) ( <= ( + T3 270 )( + T1 216 ) ) )
(or ( <= ( + T1 51 ) T4 ) ( <= ( + T4 69 ) T1 ) )
(or ( <= ( + T1 63 )  ( + T4 69 ) ) ( <= ( + T4 86 )( + T1 51 ) ) )
(or ( <= ( + T1 132 )  ( + T4 86 ) ) ( <= ( + T4 140 )( + T1 63 ) ) )
(or ( <= ( + T1 144 )  ( + T4 140 ) ) ( <= ( + T4 191 )( + T1 132 ) ) )
(or ( <= ( + T1 216 )  ( + T4 191 ) ) ( <= ( + T4 255 )( + T1 144 ) ) )
(or ( <= ( + T1 294 )  ( + T4 255 ) ) ( <= ( + T4 335 )( + T1 216 ) ) )
(or ( <= ( + T1 51 ) T5 ) ( <= ( + T5 46 ) T1 ) )
(or ( <= ( + T1 63 )  ( + T5 46 ) ) ( <= ( + T5 104 )( + T1 51 ) ) )
(or ( <= ( + T1 132 )  ( + T5 104 ) ) ( <= ( + T5 150 )( + T1 63 ) ) )
(or ( <= ( + T1 144 )  ( + T5 150 ) ) ( <= ( + T5 179 )( + T1 132 ) ) )
(or ( <= ( + T1 216 )  ( + T5 179 ) ) ( <= ( + T5 184 )( + T1 144 ) ) )
(or ( <= ( + T1 294 )  ( + T5 184 ) ) ( <= ( + T5 220 )( + T1 216 ) ) )
(or ( <= ( + T1 51 ) T6 ) ( <= ( + T6 33 ) T1 ) )
(or ( <= ( + T1 63 )  ( + T6 33 ) ) ( <= ( + T6 88 )( + T1 51 ) ) )
(or ( <= ( + T1 132 )  ( + T6 88 ) ) ( <= ( + T6 135 )( + T1 63 ) ) )
(or ( <= ( + T1 144 )  ( + T6 135 ) ) ( <= ( + T6 188 )( + T1 132 ) ) )
(or ( <= ( + T1 216 )  ( + T6 188 ) ) ( <= ( + T6 254 )( + T1 144 ) ) )
(or ( <= ( + T1 294 )  ( + T6 254 ) ) ( <= ( + T6 324 )( + T1 216 ) ) )
(or ( <= ( + T1 51 ) T7 ) ( <= ( + T7 30 ) T1 ) )
(or ( <= ( + T1 63 )  ( + T7 30 ) ) ( <= ( + T7 103 )( + T1 51 ) ) )
(or ( <= ( + T1 132 )  ( + T7 103 ) ) ( <= ( + T7 166 )( + T1 63 ) ) )
(or ( <= ( + T1 144 )  ( + T7 166 ) ) ( <= ( + T7 214 )( + T1 132 ) ) )
(or ( <= ( + T1 216 )  ( + T7 214 ) ) ( <= ( + T7 237 )( + T1 144 ) ) )
(or ( <= ( + T1 294 )  ( + T7 237 ) ) ( <= ( + T7 262 )( + T1 216 ) ) )
(or ( <= ( + T1 51 ) T8 ) ( <= ( + T8 67 ) T1 ) )
(or ( <= ( + T1 63 )  ( + T8 67 ) ) ( <= ( + T8 141 )( + T1 51 ) ) )
(or ( <= ( + T1 132 )  ( + T8 141 ) ) ( <= ( + T8 165 )( + T1 63 ) ) )
(or ( <= ( + T1 144 )  ( + T8 165 ) ) ( <= ( + T8 199 )( + T1 132 ) ) )
(or ( <= ( + T1 216 )  ( + T8 199 ) ) ( <= ( + T8 279 )( + T1 144 ) ) )
(or ( <= ( + T1 294 )  ( + T8 279 ) ) ( <= ( + T8 375 )( + T1 216 ) ) )
(or ( <= ( + T2 55 ) T3 ) ( <= ( + T3 99 ) T2 ) )
(or ( <= ( + T2 97 )  ( + T3 99 ) ) ( <= ( + T3 147 )( + T2 55 ) ) )
(or ( <= ( + T2 164 )  ( + T3 147 ) ) ( <= ( + T3 162 )( + T2 97 ) ) )
(or ( <= ( + T2 215 )  ( + T3 162 ) ) ( <= ( + T3 217 )( + T2 164 ) ) )
(or ( <= ( + T2 277 )  ( + T3 217 ) ) ( <= ( + T3 237 )( + T2 215 ) ) )
(or ( <= ( + T2 297 )  ( + T3 237 ) ) ( <= ( + T3 270 )( + T2 277 ) ) )
(or ( <= ( + T2 55 ) T4 ) ( <= ( + T4 69 ) T2 ) )
(or ( <= ( + T2 97 )  ( + T4 69 ) ) ( <= ( + T4 86 )( + T2 55 ) ) )
(or ( <= ( + T2 164 )  ( + T4 86 ) ) ( <= ( + T4 140 )( + T2 97 ) ) )
(or ( <= ( + T2 215 )  ( + T4 140 ) ) ( <= ( + T4 191 )( + T2 164 ) ) )
(or ( <= ( + T2 277 )  ( + T4 191 ) ) ( <= ( + T4 255 )( + T2 215 ) ) )
(or ( <= ( + T2 297 )  ( + T4 255 ) ) ( <= ( + T4 335 )( + T2 277 ) ) )
(or ( <= ( + T2 55 ) T5 ) ( <= ( + T5 46 ) T2 ) )
(or ( <= ( + T2 97 )  ( + T5 46 ) ) ( <= ( + T5 104 )( + T2 55 ) ) )
(or ( <= ( + T2 164 )  ( + T5 104 ) ) ( <= ( + T5 150 )( + T2 97 ) ) )
(or ( <= ( + T2 215 )  ( + T5 150 ) ) ( <= ( + T5 179 )( + T2 164 ) ) )
(or ( <= ( + T2 277 )  ( + T5 179 ) ) ( <= ( + T5 184 )( + T2 215 ) ) )
(or ( <= ( + T2 297 )  ( + T5 184 ) ) ( <= ( + T5 220 )( + T2 277 ) ) )
(or ( <= ( + T2 55 ) T6 ) ( <= ( + T6 33 ) T2 ) )
(or ( <= ( + T2 97 )  ( + T6 33 ) ) ( <= ( + T6 88 )( + T2 55 ) ) )
(or ( <= ( + T2 164 )  ( + T6 88 ) ) ( <= ( + T6 135 )( + T2 97 ) ) )
(or ( <= ( + T2 215 )  ( + T6 135 ) ) ( <= ( + T6 188 )( + T2 164 ) ) )
(or ( <= ( + T2 277 )  ( + T6 188 ) ) ( <= ( + T6 254 )( + T2 215 ) ) )
(or ( <= ( + T2 297 )  ( + T6 254 ) ) ( <= ( + T6 324 )( + T2 277 ) ) )
(or ( <= ( + T2 55 ) T7 ) ( <= ( + T7 30 ) T2 ) )
(or ( <= ( + T2 97 )  ( + T7 30 ) ) ( <= ( + T7 103 )( + T2 55 ) ) )
(or ( <= ( + T2 164 )  ( + T7 103 ) ) ( <= ( + T7 166 )( + T2 97 ) ) )
(or ( <= ( + T2 215 )  ( + T7 166 ) ) ( <= ( + T7 214 )( + T2 164 ) ) )
(or ( <= ( + T2 277 )  ( + T7 214 ) ) ( <= ( + T7 237 )( + T2 215 ) ) )
(or ( <= ( + T2 297 )  ( + T7 237 ) ) ( <= ( + T7 262 )( + T2 277 ) ) )
(or ( <= ( + T2 55 ) T8 ) ( <= ( + T8 67 ) T2 ) )
(or ( <= ( + T2 97 )  ( + T8 67 ) ) ( <= ( + T8 141 )( + T2 55 ) ) )
(or ( <= ( + T2 164 )  ( + T8 141 ) ) ( <= ( + T8 165 )( + T2 97 ) ) )
(or ( <= ( + T2 215 )  ( + T8 165 ) ) ( <= ( + T8 199 )( + T2 164 ) ) )
(or ( <= ( + T2 277 )  ( + T8 199 ) ) ( <= ( + T8 279 )( + T2 215 ) ) )
(or ( <= ( + T2 297 )  ( + T8 279 ) ) ( <= ( + T8 375 )( + T2 277 ) ) )
(or ( <= ( + T3 99 ) T4 ) ( <= ( + T4 69 ) T3 ) )
(or ( <= ( + T3 147 )  ( + T4 69 ) ) ( <= ( + T4 86 )( + T3 99 ) ) )
(or ( <= ( + T3 162 )  ( + T4 86 ) ) ( <= ( + T4 140 )( + T3 147 ) ) )
(or ( <= ( + T3 217 )  ( + T4 140 ) ) ( <= ( + T4 191 )( + T3 162 ) ) )
(or ( <= ( + T3 237 )  ( + T4 191 ) ) ( <= ( + T4 255 )( + T3 217 ) ) )
(or ( <= ( + T3 270 )  ( + T4 255 ) ) ( <= ( + T4 335 )( + T3 237 ) ) )
(or ( <= ( + T3 99 ) T5 ) ( <= ( + T5 46 ) T3 ) )
(or ( <= ( + T3 147 )  ( + T5 46 ) ) ( <= ( + T5 104 )( + T3 99 ) ) )
(or ( <= ( + T3 162 )  ( + T5 104 ) ) ( <= ( + T5 150 )( + T3 147 ) ) )
(or ( <= ( + T3 217 )  ( + T5 150 ) ) ( <= ( + T5 179 )( + T3 162 ) ) )
(or ( <= ( + T3 237 )  ( + T5 179 ) ) ( <= ( + T5 184 )( + T3 217 ) ) )
(or ( <= ( + T3 270 )  ( + T5 184 ) ) ( <= ( + T5 220 )( + T3 237 ) ) )
(or ( <= ( + T3 99 ) T6 ) ( <= ( + T6 33 ) T3 ) )
(or ( <= ( + T3 147 )  ( + T6 33 ) ) ( <= ( + T6 88 )( + T3 99 ) ) )
(or ( <= ( + T3 162 )  ( + T6 88 ) ) ( <= ( + T6 135 )( + T3 147 ) ) )
(or ( <= ( + T3 217 )  ( + T6 135 ) ) ( <= ( + T6 188 )( + T3 162 ) ) )
(or ( <= ( + T3 237 )  ( + T6 188 ) ) ( <= ( + T6 254 )( + T3 217 ) ) )
(or ( <= ( + T3 270 )  ( + T6 254 ) ) ( <= ( + T6 324 )( + T3 237 ) ) )
(or ( <= ( + T3 99 ) T7 ) ( <= ( + T7 30 ) T3 ) )
(or ( <= ( + T3 147 )  ( + T7 30 ) ) ( <= ( + T7 103 )( + T3 99 ) ) )
(or ( <= ( + T3 162 )  ( + T7 103 ) ) ( <= ( + T7 166 )( + T3 147 ) ) )
(or ( <= ( + T3 217 )  ( + T7 166 ) ) ( <= ( + T7 214 )( + T3 162 ) ) )
(or ( <= ( + T3 237 )  ( + T7 214 ) ) ( <= ( + T7 237 )( + T3 217 ) ) )
(or ( <= ( + T3 270 )  ( + T7 237 ) ) ( <= ( + T7 262 )( + T3 237 ) ) )
(or ( <= ( + T3 99 ) T8 ) ( <= ( + T8 67 ) T3 ) )
(or ( <= ( + T3 147 )  ( + T8 67 ) ) ( <= ( + T8 141 )( + T3 99 ) ) )
(or ( <= ( + T3 162 )  ( + T8 141 ) ) ( <= ( + T8 165 )( + T3 147 ) ) )
(or ( <= ( + T3 217 )  ( + T8 165 ) ) ( <= ( + T8 199 )( + T3 162 ) ) )
(or ( <= ( + T3 237 )  ( + T8 199 ) ) ( <= ( + T8 279 )( + T3 217 ) ) )
(or ( <= ( + T3 270 )  ( + T8 279 ) ) ( <= ( + T8 375 )( + T3 237 ) ) )
(or ( <= ( + T4 69 ) T5 ) ( <= ( + T5 46 ) T4 ) )
(or ( <= ( + T4 86 )  ( + T5 46 ) ) ( <= ( + T5 104 )( + T4 69 ) ) )
(or ( <= ( + T4 140 )  ( + T5 104 ) ) ( <= ( + T5 150 )( + T4 86 ) ) )
(or ( <= ( + T4 191 )  ( + T5 150 ) ) ( <= ( + T5 179 )( + T4 140 ) ) )
(or ( <= ( + T4 255 )  ( + T5 179 ) ) ( <= ( + T5 184 )( + T4 191 ) ) )
(or ( <= ( + T4 335 )  ( + T5 184 ) ) ( <= ( + T5 220 )( + T4 255 ) ) )
(or ( <= ( + T4 69 ) T6 ) ( <= ( + T6 33 ) T4 ) )
(or ( <= ( + T4 86 )  ( + T6 33 ) ) ( <= ( + T6 88 )( + T4 69 ) ) )
(or ( <= ( + T4 140 )  ( + T6 88 ) ) ( <= ( + T6 135 )( + T4 86 ) ) )
(or ( <= ( + T4 191 )  ( + T6 135 ) ) ( <= ( + T6 188 )( + T4 140 ) ) )
(or ( <= ( + T4 255 )  ( + T6 188 ) ) ( <= ( + T6 254 )( + T4 191 ) ) )
(or ( <= ( + T4 335 )  ( + T6 254 ) ) ( <= ( + T6 324 )( + T4 255 ) ) )
(or ( <= ( + T4 69 ) T7 ) ( <= ( + T7 30 ) T4 ) )
(or ( <= ( + T4 86 )  ( + T7 30 ) ) ( <= ( + T7 103 )( + T4 69 ) ) )
(or ( <= ( + T4 140 )  ( + T7 103 ) ) ( <= ( + T7 166 )( + T4 86 ) ) )
(or ( <= ( + T4 191 )  ( + T7 166 ) ) ( <= ( + T7 214 )( + T4 140 ) ) )
(or ( <= ( + T4 255 )  ( + T7 214 ) ) ( <= ( + T7 237 )( + T4 191 ) ) )
(or ( <= ( + T4 335 )  ( + T7 237 ) ) ( <= ( + T7 262 )( + T4 255 ) ) )
(or ( <= ( + T4 69 ) T8 ) ( <= ( + T8 67 ) T4 ) )
(or ( <= ( + T4 86 )  ( + T8 67 ) ) ( <= ( + T8 141 )( + T4 69 ) ) )
(or ( <= ( + T4 140 )  ( + T8 141 ) ) ( <= ( + T8 165 )( + T4 86 ) ) )
(or ( <= ( + T4 191 )  ( + T8 165 ) ) ( <= ( + T8 199 )( + T4 140 ) ) )
(or ( <= ( + T4 255 )  ( + T8 199 ) ) ( <= ( + T8 279 )( + T4 191 ) ) )
(or ( <= ( + T4 335 )  ( + T8 279 ) ) ( <= ( + T8 375 )( + T4 255 ) ) )
(or ( <= ( + T5 46 ) T6 ) ( <= ( + T6 33 ) T5 ) )
(or ( <= ( + T5 104 )  ( + T6 33 ) ) ( <= ( + T6 88 )( + T5 46 ) ) )
(or ( <= ( + T5 150 )  ( + T6 88 ) ) ( <= ( + T6 135 )( + T5 104 ) ) )
(or ( <= ( + T5 179 )  ( + T6 135 ) ) ( <= ( + T6 188 )( + T5 150 ) ) )
(or ( <= ( + T5 184 )  ( + T6 188 ) ) ( <= ( + T6 254 )( + T5 179 ) ) )
(or ( <= ( + T5 220 )  ( + T6 254 ) ) ( <= ( + T6 324 )( + T5 184 ) ) )
(or ( <= ( + T5 46 ) T7 ) ( <= ( + T7 30 ) T5 ) )
(or ( <= ( + T5 104 )  ( + T7 30 ) ) ( <= ( + T7 103 )( + T5 46 ) ) )
(or ( <= ( + T5 150 )  ( + T7 103 ) ) ( <= ( + T7 166 )( + T5 104 ) ) )
(or ( <= ( + T5 179 )  ( + T7 166 ) ) ( <= ( + T7 214 )( + T5 150 ) ) )
(or ( <= ( + T5 184 )  ( + T7 214 ) ) ( <= ( + T7 237 )( + T5 179 ) ) )
(or ( <= ( + T5 220 )  ( + T7 237 ) ) ( <= ( + T7 262 )( + T5 184 ) ) )
(or ( <= ( + T5 46 ) T8 ) ( <= ( + T8 67 ) T5 ) )
(or ( <= ( + T5 104 )  ( + T8 67 ) ) ( <= ( + T8 141 )( + T5 46 ) ) )
(or ( <= ( + T5 150 )  ( + T8 141 ) ) ( <= ( + T8 165 )( + T5 104 ) ) )
(or ( <= ( + T5 179 )  ( + T8 165 ) ) ( <= ( + T8 199 )( + T5 150 ) ) )
(or ( <= ( + T5 184 )  ( + T8 199 ) ) ( <= ( + T8 279 )( + T5 179 ) ) )
(or ( <= ( + T5 220 )  ( + T8 279 ) ) ( <= ( + T8 375 )( + T5 184 ) ) )
(or ( <= ( + T6 33 ) T7 ) ( <= ( + T7 30 ) T6 ) )
(or ( <= ( + T6 88 )  ( + T7 30 ) ) ( <= ( + T7 103 )( + T6 33 ) ) )
(or ( <= ( + T6 135 )  ( + T7 103 ) ) ( <= ( + T7 166 )( + T6 88 ) ) )
(or ( <= ( + T6 188 )  ( + T7 166 ) ) ( <= ( + T7 214 )( + T6 135 ) ) )
(or ( <= ( + T6 254 )  ( + T7 214 ) ) ( <= ( + T7 237 )( + T6 188 ) ) )
(or ( <= ( + T6 324 )  ( + T7 237 ) ) ( <= ( + T7 262 )( + T6 254 ) ) )
(or ( <= ( + T6 33 ) T8 ) ( <= ( + T8 67 ) T6 ) )
(or ( <= ( + T6 88 )  ( + T8 67 ) ) ( <= ( + T8 141 )( + T6 33 ) ) )
(or ( <= ( + T6 135 )  ( + T8 141 ) ) ( <= ( + T8 165 )( + T6 88 ) ) )
(or ( <= ( + T6 188 )  ( + T8 165 ) ) ( <= ( + T8 199 )( + T6 135 ) ) )
(or ( <= ( + T6 254 )  ( + T8 199 ) ) ( <= ( + T8 279 )( + T6 188 ) ) )
(or ( <= ( + T6 324 )  ( + T8 279 ) ) ( <= ( + T8 375 )( + T6 254 ) ) )
(or ( <= ( + T7 30 ) T8 ) ( <= ( + T8 67 ) T7 ) )
(or ( <= ( + T7 103 )  ( + T8 67 ) ) ( <= ( + T8 141 )( + T7 30 ) ) )
(or ( <= ( + T7 166 )  ( + T8 141 ) ) ( <= ( + T8 165 )( + T7 103 ) ) )
(or ( <= ( + T7 214 )  ( + T8 165 ) ) ( <= ( + T8 199 )( + T7 166 ) ) )
(or ( <= ( + T7 237 )  ( + T8 199 ) ) ( <= ( + T8 279 )( + T7 214 ) ) )
(or ( <= ( + T7 262 )  ( + T8 279 ) ) ( <= ( + T8 375 )( + T7 237 ) ) )
( <= ( + T1 294 ) Z)
( <= ( + T2 297 ) Z)
( <= ( + T3 270 ) Z)
( <= ( + T4 335 ) Z)
( <= ( + T5 220 ) Z)
( <= ( + T6 324 ) Z)
( <= ( + T7 262 ) Z)
( <= ( + T8 375 ) Z)
( >= T1 0 )
( >= T2 0 )
( >= T3 0 )
( >= T4 0 )
( >= T5 0 )
( >= T6 0 )
( >= T7 0 )
( >= T8 0 )
) )
)(=> $phi $goal))))